c *********************************
c * Circuit generated by BenCGen
c *
c * CarrySaveAdder_42_42_42_42_43
c *
c * Ports with 1 gate(s): 2
c * Ports with 2 gate(s): 211
c * Total gates: 213
c *********************************
p cnf 339 721
1 213 0
-1 -213 0
1 -212 0
213 -212 0
-1 -213 212 0
212 -169 0
-212 169 0
1 43 -214 0
-1 43 214 0
1 -43 214 0
-1 -43 -214 0
214 85 -127 0
-214 85 127 0
214 -85 127 0
-214 -85 -127 0
85 -215 0
214 -215 0
-85 -214 215 0
43 -216 0
1 -216 0
-43 -1 216 0
-215 170 0
-216 170 0
215 216 -170 0
2 44 -217 0
-2 44 217 0
2 -44 217 0
-2 -44 -217 0
217 86 -128 0
-217 86 128 0
217 -86 128 0
-217 -86 -128 0
86 -218 0
217 -218 0
-86 -217 218 0
44 -219 0
2 -219 0
-44 -2 219 0
-218 171 0
-219 171 0
218 219 -171 0
3 45 -220 0
-3 45 220 0
3 -45 220 0
-3 -45 -220 0
220 87 -129 0
-220 87 129 0
220 -87 129 0
-220 -87 -129 0
87 -221 0
220 -221 0
-87 -220 221 0
45 -222 0
3 -222 0
-45 -3 222 0
-221 172 0
-222 172 0
221 222 -172 0
4 46 -223 0
-4 46 223 0
4 -46 223 0
-4 -46 -223 0
223 88 -130 0
-223 88 130 0
223 -88 130 0
-223 -88 -130 0
88 -224 0
223 -224 0
-88 -223 224 0
46 -225 0
4 -225 0
-46 -4 225 0
-224 173 0
-225 173 0
224 225 -173 0
5 47 -226 0
-5 47 226 0
5 -47 226 0
-5 -47 -226 0
226 89 -131 0
-226 89 131 0
226 -89 131 0
-226 -89 -131 0
89 -227 0
226 -227 0
-89 -226 227 0
47 -228 0
5 -228 0
-47 -5 228 0
-227 174 0
-228 174 0
227 228 -174 0
6 48 -229 0
-6 48 229 0
6 -48 229 0
-6 -48 -229 0
229 90 -132 0
-229 90 132 0
229 -90 132 0
-229 -90 -132 0
90 -230 0
229 -230 0
-90 -229 230 0
48 -231 0
6 -231 0
-48 -6 231 0
-230 175 0
-231 175 0
230 231 -175 0
7 49 -232 0
-7 49 232 0
7 -49 232 0
-7 -49 -232 0
232 91 -133 0
-232 91 133 0
232 -91 133 0
-232 -91 -133 0
91 -233 0
232 -233 0
-91 -232 233 0
49 -234 0
7 -234 0
-49 -7 234 0
-233 176 0
-234 176 0
233 234 -176 0
8 50 -235 0
-8 50 235 0
8 -50 235 0
-8 -50 -235 0
235 92 -134 0
-235 92 134 0
235 -92 134 0
-235 -92 -134 0
92 -236 0
235 -236 0
-92 -235 236 0
50 -237 0
8 -237 0
-50 -8 237 0
-236 177 0
-237 177 0
236 237 -177 0
9 51 -238 0
-9 51 238 0
9 -51 238 0
-9 -51 -238 0
238 93 -135 0
-238 93 135 0
238 -93 135 0
-238 -93 -135 0
93 -239 0
238 -239 0
-93 -238 239 0
51 -240 0
9 -240 0
-51 -9 240 0
-239 178 0
-240 178 0
239 240 -178 0
10 52 -241 0
-10 52 241 0
10 -52 241 0
-10 -52 -241 0
241 94 -136 0
-241 94 136 0
241 -94 136 0
-241 -94 -136 0
94 -242 0
241 -242 0
-94 -241 242 0
52 -243 0
10 -243 0
-52 -10 243 0
-242 179 0
-243 179 0
242 243 -179 0
11 53 -244 0
-11 53 244 0
11 -53 244 0
-11 -53 -244 0
244 95 -137 0
-244 95 137 0
244 -95 137 0
-244 -95 -137 0
95 -245 0
244 -245 0
-95 -244 245 0
53 -246 0
11 -246 0
-53 -11 246 0
-245 180 0
-246 180 0
245 246 -180 0
12 54 -247 0
-12 54 247 0
12 -54 247 0
-12 -54 -247 0
247 96 -138 0
-247 96 138 0
247 -96 138 0
-247 -96 -138 0
96 -248 0
247 -248 0
-96 -247 248 0
54 -249 0
12 -249 0
-54 -12 249 0
-248 181 0
-249 181 0
248 249 -181 0
13 55 -250 0
-13 55 250 0
13 -55 250 0
-13 -55 -250 0
250 97 -139 0
-250 97 139 0
250 -97 139 0
-250 -97 -139 0
97 -251 0
250 -251 0
-97 -250 251 0
55 -252 0
13 -252 0
-55 -13 252 0
-251 182 0
-252 182 0
251 252 -182 0
14 56 -253 0
-14 56 253 0
14 -56 253 0
-14 -56 -253 0
253 98 -140 0
-253 98 140 0
253 -98 140 0
-253 -98 -140 0
98 -254 0
253 -254 0
-98 -253 254 0
56 -255 0
14 -255 0
-56 -14 255 0
-254 183 0
-255 183 0
254 255 -183 0
15 57 -256 0
-15 57 256 0
15 -57 256 0
-15 -57 -256 0
256 99 -141 0
-256 99 141 0
256 -99 141 0
-256 -99 -141 0
99 -257 0
256 -257 0
-99 -256 257 0
57 -258 0
15 -258 0
-57 -15 258 0
-257 184 0
-258 184 0
257 258 -184 0
16 58 -259 0
-16 58 259 0
16 -58 259 0
-16 -58 -259 0
259 100 -142 0
-259 100 142 0
259 -100 142 0
-259 -100 -142 0
100 -260 0
259 -260 0
-100 -259 260 0
58 -261 0
16 -261 0
-58 -16 261 0
-260 185 0
-261 185 0
260 261 -185 0
17 59 -262 0
-17 59 262 0
17 -59 262 0
-17 -59 -262 0
262 101 -143 0
-262 101 143 0
262 -101 143 0
-262 -101 -143 0
101 -263 0
262 -263 0
-101 -262 263 0
59 -264 0
17 -264 0
-59 -17 264 0
-263 186 0
-264 186 0
263 264 -186 0
18 60 -265 0
-18 60 265 0
18 -60 265 0
-18 -60 -265 0
265 102 -144 0
-265 102 144 0
265 -102 144 0
-265 -102 -144 0
102 -266 0
265 -266 0
-102 -265 266 0
60 -267 0
18 -267 0
-60 -18 267 0
-266 187 0
-267 187 0
266 267 -187 0
19 61 -268 0
-19 61 268 0
19 -61 268 0
-19 -61 -268 0
268 103 -145 0
-268 103 145 0
268 -103 145 0
-268 -103 -145 0
103 -269 0
268 -269 0
-103 -268 269 0
61 -270 0
19 -270 0
-61 -19 270 0
-269 188 0
-270 188 0
269 270 -188 0
20 62 -271 0
-20 62 271 0
20 -62 271 0
-20 -62 -271 0
271 104 -146 0
-271 104 146 0
271 -104 146 0
-271 -104 -146 0
104 -272 0
271 -272 0
-104 -271 272 0
62 -273 0
20 -273 0
-62 -20 273 0
-272 189 0
-273 189 0
272 273 -189 0
21 63 -274 0
-21 63 274 0
21 -63 274 0
-21 -63 -274 0
274 105 -147 0
-274 105 147 0
274 -105 147 0
-274 -105 -147 0
105 -275 0
274 -275 0
-105 -274 275 0
63 -276 0
21 -276 0
-63 -21 276 0
-275 190 0
-276 190 0
275 276 -190 0
22 64 -277 0
-22 64 277 0
22 -64 277 0
-22 -64 -277 0
277 106 -148 0
-277 106 148 0
277 -106 148 0
-277 -106 -148 0
106 -278 0
277 -278 0
-106 -277 278 0
64 -279 0
22 -279 0
-64 -22 279 0
-278 191 0
-279 191 0
278 279 -191 0
23 65 -280 0
-23 65 280 0
23 -65 280 0
-23 -65 -280 0
280 107 -149 0
-280 107 149 0
280 -107 149 0
-280 -107 -149 0
107 -281 0
280 -281 0
-107 -280 281 0
65 -282 0
23 -282 0
-65 -23 282 0
-281 192 0
-282 192 0
281 282 -192 0
24 66 -283 0
-24 66 283 0
24 -66 283 0
-24 -66 -283 0
283 108 -150 0
-283 108 150 0
283 -108 150 0
-283 -108 -150 0
108 -284 0
283 -284 0
-108 -283 284 0
66 -285 0
24 -285 0
-66 -24 285 0
-284 193 0
-285 193 0
284 285 -193 0
25 67 -286 0
-25 67 286 0
25 -67 286 0
-25 -67 -286 0
286 109 -151 0
-286 109 151 0
286 -109 151 0
-286 -109 -151 0
109 -287 0
286 -287 0
-109 -286 287 0
67 -288 0
25 -288 0
-67 -25 288 0
-287 194 0
-288 194 0
287 288 -194 0
26 68 -289 0
-26 68 289 0
26 -68 289 0
-26 -68 -289 0
289 110 -152 0
-289 110 152 0
289 -110 152 0
-289 -110 -152 0
110 -290 0
289 -290 0
-110 -289 290 0
68 -291 0
26 -291 0
-68 -26 291 0
-290 195 0
-291 195 0
290 291 -195 0
27 69 -292 0
-27 69 292 0
27 -69 292 0
-27 -69 -292 0
292 111 -153 0
-292 111 153 0
292 -111 153 0
-292 -111 -153 0
111 -293 0
292 -293 0
-111 -292 293 0
69 -294 0
27 -294 0
-69 -27 294 0
-293 196 0
-294 196 0
293 294 -196 0
28 70 -295 0
-28 70 295 0
28 -70 295 0
-28 -70 -295 0
295 112 -154 0
-295 112 154 0
295 -112 154 0
-295 -112 -154 0
112 -296 0
295 -296 0
-112 -295 296 0
70 -297 0
28 -297 0
-70 -28 297 0
-296 197 0
-297 197 0
296 297 -197 0
29 71 -298 0
-29 71 298 0
29 -71 298 0
-29 -71 -298 0
298 113 -155 0
-298 113 155 0
298 -113 155 0
-298 -113 -155 0
113 -299 0
298 -299 0
-113 -298 299 0
71 -300 0
29 -300 0
-71 -29 300 0
-299 198 0
-300 198 0
299 300 -198 0
30 72 -301 0
-30 72 301 0
30 -72 301 0
-30 -72 -301 0
301 114 -156 0
-301 114 156 0
301 -114 156 0
-301 -114 -156 0
114 -302 0
301 -302 0
-114 -301 302 0
72 -303 0
30 -303 0
-72 -30 303 0
-302 199 0
-303 199 0
302 303 -199 0
31 73 -304 0
-31 73 304 0
31 -73 304 0
-31 -73 -304 0
304 115 -157 0
-304 115 157 0
304 -115 157 0
-304 -115 -157 0
115 -305 0
304 -305 0
-115 -304 305 0
73 -306 0
31 -306 0
-73 -31 306 0
-305 200 0
-306 200 0
305 306 -200 0
32 74 -307 0
-32 74 307 0
32 -74 307 0
-32 -74 -307 0
307 116 -158 0
-307 116 158 0
307 -116 158 0
-307 -116 -158 0
116 -308 0
307 -308 0
-116 -307 308 0
74 -309 0
32 -309 0
-74 -32 309 0
-308 201 0
-309 201 0
308 309 -201 0
33 75 -310 0
-33 75 310 0
33 -75 310 0
-33 -75 -310 0
310 117 -159 0
-310 117 159 0
310 -117 159 0
-310 -117 -159 0
117 -311 0
310 -311 0
-117 -310 311 0
75 -312 0
33 -312 0
-75 -33 312 0
-311 202 0
-312 202 0
311 312 -202 0
34 76 -313 0
-34 76 313 0
34 -76 313 0
-34 -76 -313 0
313 118 -160 0
-313 118 160 0
313 -118 160 0
-313 -118 -160 0
118 -314 0
313 -314 0
-118 -313 314 0
76 -315 0
34 -315 0
-76 -34 315 0
-314 203 0
-315 203 0
314 315 -203 0
35 77 -316 0
-35 77 316 0
35 -77 316 0
-35 -77 -316 0
316 119 -161 0
-316 119 161 0
316 -119 161 0
-316 -119 -161 0
119 -317 0
316 -317 0
-119 -316 317 0
77 -318 0
35 -318 0
-77 -35 318 0
-317 204 0
-318 204 0
317 318 -204 0
36 78 -319 0
-36 78 319 0
36 -78 319 0
-36 -78 -319 0
319 120 -162 0
-319 120 162 0
319 -120 162 0
-319 -120 -162 0
120 -320 0
319 -320 0
-120 -319 320 0
78 -321 0
36 -321 0
-78 -36 321 0
-320 205 0
-321 205 0
320 321 -205 0
37 79 -322 0
-37 79 322 0
37 -79 322 0
-37 -79 -322 0
322 121 -163 0
-322 121 163 0
322 -121 163 0
-322 -121 -163 0
121 -323 0
322 -323 0
-121 -322 323 0
79 -324 0
37 -324 0
-79 -37 324 0
-323 206 0
-324 206 0
323 324 -206 0
38 80 -325 0
-38 80 325 0
38 -80 325 0
-38 -80 -325 0
325 122 -164 0
-325 122 164 0
325 -122 164 0
-325 -122 -164 0
122 -326 0
325 -326 0
-122 -325 326 0
80 -327 0
38 -327 0
-80 -38 327 0
-326 207 0
-327 207 0
326 327 -207 0
39 81 -328 0
-39 81 328 0
39 -81 328 0
-39 -81 -328 0
328 123 -165 0
-328 123 165 0
328 -123 165 0
-328 -123 -165 0
123 -329 0
328 -329 0
-123 -328 329 0
81 -330 0
39 -330 0
-81 -39 330 0
-329 208 0
-330 208 0
329 330 -208 0
40 82 -331 0
-40 82 331 0
40 -82 331 0
-40 -82 -331 0
331 124 -166 0
-331 124 166 0
331 -124 166 0
-331 -124 -166 0
124 -332 0
331 -332 0
-124 -331 332 0
82 -333 0
40 -333 0
-82 -40 333 0
-332 209 0
-333 209 0
332 333 -209 0
41 83 -334 0
-41 83 334 0
41 -83 334 0
-41 -83 -334 0
334 125 -167 0
-334 125 167 0
334 -125 167 0
-334 -125 -167 0
125 -335 0
334 -335 0
-125 -334 335 0
83 -336 0
41 -336 0
-83 -41 336 0
-335 210 0
-336 210 0
335 336 -210 0
42 84 -337 0
-42 84 337 0
42 -84 337 0
-42 -84 -337 0
337 126 -168 0
-337 126 168 0
337 -126 168 0
-337 -126 -168 0
126 -338 0
337 -338 0
-126 -337 338 0
84 -339 0
42 -339 0
-84 -42 339 0
-338 211 0
-339 211 0
338 339 -211 0
